SimulationType                MonteCarlo
NumberOfCycles                1
NumberOfInitializationCycles  0
PrintEvery                    100
PrintPropertiesEvery          1000
RestartFile                   no

# Restart and crash-recovery
ContinueAfterCrash              no
WriteBinaryRestartFileEvery     1000

Forcefield                    IRMOF-1_K.Walton_FullPot
CutOffVDW                     25.0
ChargeMethod                  Ewald
CutOffChargeCharge            25.832
EwaldPrecision                1e-6

UseChargesFromCIFFile         yes

Framework 0
FrameworkName IRMOF-1
UnitCells 2 2 2
HeliumVoidFraction 0.78
ExternalTemperature 208.0
ExternalPressure  1.0

Movies no
WriteMoviesEvery    1000

# Grids
NumberOfGrids 0

Component 0 MoleculeName             CO2
	    TranslationProbability   0.25
	    RotationProbability      0.25
	    SwapProbability          0.50
	    CreateNumberOfMolecules  0
